(set-logic HORN)
(declare-datatypes ((Nat_1 0)) (((Z_3 ) (Z_4 (unS_0 Nat_1)))))
(declare-datatypes ((list_0 0)) (((nil_0 ) (cons_0 (head_0 Nat_1) (tail_0 list_0)))))
(declare-datatypes ((Nat_0 0)) (((Z_0 ) (S_0 (projS_0 Nat_0)))))
(declare-fun diseqNat_0 (Nat_0 Nat_0) Bool)
(declare-fun length_0 (Nat_0 list_0) Bool)
(declare-fun x_1 (Nat_0 Nat_0 Nat_0) Bool)
(declare-fun x_3 (list_0 list_0 list_0) Bool)
(assert (forall ((x_39 Nat_0))
	(diseqNat_0 Z_0 (S_0 x_39))))
(assert (forall ((x_40 Nat_0))
	(diseqNat_0 (S_0 x_40) Z_0)))
(assert (forall ((x_41 Nat_0) (x_42 Nat_0))
	(=> (diseqNat_0 x_41 x_42) (diseqNat_0 (S_0 x_41) (S_0 x_42)))))
(assert (forall ((x_7 Nat_0) (y_0 Nat_1) (xs_0 list_0))
	(=> (length_0 x_7 xs_0) (length_0 (S_0 x_7) (cons_0 y_0 xs_0)))))
(assert (length_0 Z_0 nil_0))
(assert (forall ((x_10 Nat_0) (z_1 Nat_0) (y_1 Nat_0))
	(=> (x_1 x_10 z_1 y_1) (x_1 (S_0 x_10) (S_0 z_1) y_1))))
(assert (forall ((x_11 Nat_0))
	(x_1 x_11 Z_0 x_11)))
(assert (forall ((x_13 list_0) (z_2 Nat_1) (xs_1 list_0) (y_2 list_0))
	(=> (x_3 x_13 xs_1 y_2) (x_3 (cons_0 z_2 x_13) (cons_0 z_2 xs_1) y_2))))
(assert (forall ((x_14 list_0))
	(x_3 x_14 nil_0 x_14)))
(assert (forall ((x_15 list_0) (x_16 Nat_0) (x_17 Nat_0) (x_18 Nat_0) (x_19 Nat_0) (x_5 list_0) (y_3 list_0))
	(=> (and (diseqNat_0 x_16 x_19) (x_3 x_15 x_5 y_3) (length_0 x_16 x_15) (length_0 x_17 y_3) (length_0 x_18 x_5) (x_1 x_19 x_17 x_18)) false)))
(check-sat)
(get-model)
